sat
(:max-memory        19.93
 :memory            17.78
 :num-allocs        10020013079.00
 :rlimit-count      1048658
 :sls-constraints   7424
 :sls-ddfw-flips    8555011.00
 :sls-ddfw-reinits  41
 :sls-ddfw-restarts 109
 :sls-ddfw-shifts   2670570.00
 :time              9.54
 :total-time        9.51)
